Instance name: /mnt/c/Users/ORG/CLionProjects/uMV-FSTSP/Murray_Chu_2015_test_data/FSTSP/FSTSP_10_customer_problems/20140810T123443v10

drone speed: 0.6 miles/minute
uav non-eligible customer: 4 8 
Printing number of nodes: 11

Set parameter Threads to value 20
Gurobi Optimizer version 11.0.0 build v11.0.0rc2 (linux64 - "Ubuntu 22.04.3 LTS")

CPU model: 13th Gen Intel(R) Core(TM) i5-13500, instruction set [SSE2|AVX|AVX2]
Thread count: 10 physical cores, 20 logical processors, using up to 20 threads

Optimize a model with 6346 rows, 1825 columns and 197322 nonzeros
Model fingerprint: 0xc9f1d816
Variable types: 11 continuous, 1814 integer (1814 binary)
Coefficient statistics:
  Matrix range     [5e-01, 3e+01]
  Objective range  [1e+00, 3e+01]
  Bounds range     [1e+00, 1e+00]
  RHS range        [1e+00, 8e+00]
Found heuristic solution: objective 120.7791851
Presolve removed 953 rows and 813 columns
Presolve time: 0.37s
Presolved: 5393 rows, 1012 columns, 152393 nonzeros
Variable types: 8 continuous, 1004 integer (1004 binary)

Root relaxation: objective 4.286456e+01, 2543 iterations, 0.12 seconds (0.37 work units)

    Nodes    |    Current Node    |     Objective Bounds      |     Work
 Expl Unexpl |  Obj  Depth IntInf | Incumbent    BestBd   Gap | It/Node Time

     0     0   42.86456    0   99  120.77919   42.86456  64.5%     -    0s
H    0     0                      70.2678572   42.86456  39.0%     -    0s
H    0     0                      60.2060180   42.86456  28.8%     -    0s
     0     0   43.59504    0   57   60.20602   43.59504  27.6%     -    0s
H    0     0                      55.5174099   43.59504  21.5%     -    0s
     0     0   43.59504    0   67   55.51741   43.59504  21.5%     -    0s
H    0     0                      51.3990278   43.59504  15.2%     -    1s
     0     0   43.59504    0   60   51.39903   43.59504  15.2%     -    1s
     0     0   43.59504    0   60   51.39903   43.59504  15.2%     -    1s
     0     0   43.59504    0   66   51.39903   43.59504  15.2%     -    1s
H    0     0                      47.9348019   43.59504  9.05%     -    1s
     0     0   43.59504    0   69   47.93480   43.59504  9.05%     -    1s
     0     0   43.59504    0   93   47.93480   43.59504  9.05%     -    1s
     0     0   43.59504    0   45   47.93480   43.59504  9.05%     -    1s
     0     0   43.59504    0   72   47.93480   43.59504  9.05%     -    1s
     0     0   43.59504    0   64   47.93480   43.59504  9.05%     -    1s
     0     0   43.59504    0   73   47.93480   43.59504  9.05%     -    1s
     0     0   43.59504    0   66   47.93480   43.59504  9.05%     -    1s
     0     0   43.67267    0   44   47.93480   43.67267  8.89%     -    1s
     0     0   43.71902    0   33   47.93480   43.71902  8.79%     -    1s
     0     2   43.71902    0   33   47.93480   43.71902  8.79%     -    1s
H  104    39                      47.9347979   43.73126  8.77%  87.1    2s

Cutting planes:
  Gomory: 8
  Cover: 6
  Clique: 1
  MIR: 16
  StrongCG: 1
  Inf proof: 1
  Zero half: 14
  RLT: 24

Explored 998 nodes (52371 simplex iterations) in 2.65 seconds (4.66 work units)
Thread count was 20 (of 20 available processors)

Solution count 8: 47.9348 47.9348 51.399 ... 120.779

Optimal solution found (tolerance 1.00e-04)
Best objective 4.793479789639e+01, best bound 4.793479789639e+01, gap 0.0000%
